p cnf 1177 1307
c ind 1168 843 848 849 850 851 852 854 855 856 0
c ind 857 858 859 860 861 862 863 864 865 866 0
c ind 867 868 869 870 871 872 873 878 879 885 0
c ind 886 887 888 889 890 891 892 893 894 895 0
c ind 896 897 898 899 908 909 910 911 914 915 0
c ind 916 917 918 919 922 923 924 925 926 927 0
c ind 936 937 938 939 942 943 944 945 946 947 0
c ind 950 951 952 953 954 955 956 957 958 959 0
c ind 960 962 963 964 965 966 967 968 969 970 0
c ind 971 972 973 974 975 976 977 978 979 980 0
c ind 981 982 984 986 987 988 989 990 991 992 0
c ind 993 994 995 999 1000 1001 1002 1003 1005 1007 0
c ind 1008 1009 1010 1011 1012 1013 1014 1015 1016 1022 0
c ind 1023 1034 1035 1036 1037 1039 1040 1042 1044 1048 0
c ind 1053 1054 1055 1056 1057 1058 1059 1060 1061 1062 0
c ind 1063 1064 1065 1066 1067 1068 1070 1072 1073 1076 0
c ind 1077 1078 1079 1080 1084 1085 1086 1087 1088 1091 0
c ind 1092 1093 1094 1095 1096 1097 1098 1099 1100 1101 0
c ind 1102 1105 1106 1107 1108 1109 1113 1114 1115 1116 0
c ind 1117 1121 1122 1123 1124 1125 1128 1129 1130 1131 0
c ind 1133 1135 1136 1137 1139 1153 1144 1148 1175 1152 0
c ind 1166 1167 1143 1147 1157 1158 1174 1156 1165 1160 0
c ind 1162 844 845 1142 1151 1155 1159 1161 1164 1170 0
c ind 1146 1173 1140 1150 1154 1163 1145 1172 1141 1169 0
c ind 853 1138 1149 1171 1021 1018 1019 1020 846 961 0
c ind 1134 847 1132 1126 1127 1120 1118 1119 1112 1089 0
c ind 1090 1110 1111 1083 1104 1081 1082 1103 1074 1075 0
c ind 1069 1071 1041 1043 1049 1050 1051 1052 1046 1047 0
c ind 1004 1006 1027 1028 1030 1031 1032 1033 1024 1025 0
c ind 1026 1029 1038 1045 998 996 997 1017 983 985 0
c ind 842 874 877 875 876 882 884 881 883 880 0
c ind 940 941 935 948 949 931 913 920 921 928 0
c ind 929 930 932 933 907 934 900 903 912 901 0
c ind 902 904 905 906 1 0
c ret 610 611 612 613 614 615 616 617 618 619 0
c ret 620 621 622 623 624 625 626 627 628 629 0
c ret 630 631 632 633 634 635 636 637 638 639 0
c ret 640 641 642 643 644 645 646 647 648 649 0
c ret 650 651 652 653 654 655 656 657 658 659 0
c ret 660 661 662 663 664 665 666 667 668 669 0
c ret 670 671 672 673 674 675 676 677 678 679 0
c ret 680 681 682 683 684 685 686 687 688 689 0
c ret 690 691 692 693 694 695 696 697 698 699 0
c ret 700 701 702 703 704 705 706 707 708 709 0
c ret 710 711 712 713 714 715 716 717 718 719 0
c ret 720 721 722 723 724 725 726 727 728 729 0
c ret 730 731 732 733 734 735 736 737 738 739 0
c ret 740 741 742 743 744 745 746 747 748 749 0
c ret 750 751 752 753 754 755 756 757 758 759 0
c ret 760 761 762 763 764 765 766 767 768 769 0
c ret 770 771 772 773 774 775 776 777 778 779 0
c ret 780 781 782 783 784 785 786 787 788 789 0
c ret 790 791 792 793 794 795 796 797 798 799 0
c ret 800 801 802 803 305 804 805 311 312 313 0
c ret 314 806 315 316 317 318 319 320 321 322 0
c ret 323 324 325 326 327 328 329 330 331 332 0
c ret 333 334 335 336 807 808 337 338 339 809 0
c ret 340 810 341 342 343 344 345 346 347 306 0
c ret 348 349 350 351 352 353 354 355 356 357 0
c ret 811 812 358 359 813 360 814 361 362 363 0
c ret 364 365 366 367 368 369 370 371 372 373 0
c ret 374 815 375 376 377 378 379 380 381 816 0
c ret 817 382 818 383 819 384 385 386 387 388 0
c ret 307 389 390 391 392 393 394 395 396 397 0
c ret 820 398 399 400 401 402 821 403 822 404 0
c ret 405 406 407 823 824 408 409 410 411 412 0
c ret 413 414 415 416 417 418 419 420 421 422 0
c ret 825 423 826 424 425 426 827 427 828 428 0
c ret 308 429 430 431 432 433 434 435 436 437 0
c ret 438 439 440 441 829 442 443 444 830 445 0
c ret 831 446 447 832 833 448 449 450 451 452 0
c ret 453 454 455 456 457 458 459 834 835 460 0
c ret 461 462 463 836 464 465 466 467 468 469 0
c ret 470 471 472 473 474 475 476 477 478 837 0
c ret 479 480 481 482 838 483 839 484 840 841 0
c ret 485 486 487 488 489 490 491 492 493 494 0
c ret 495 496 497 498 499 309 500 501 502 503 0
c ret 504 505 506 507 508 509 510 511 512 513 0
c ret 514 515 516 517 518 519 520 521 522 523 0
c ret 524 525 526 527 528 529 530 531 532 533 0
c ret 534 535 536 537 538 310 539 540 541 542 0
c ret 543 544 545 546 547 548 549 550 551 552 0
c ret 553 554 555 556 557 558 559 560 561 562 0
c ret 563 564 565 566 567 568 569 570 571 572 0
c ret 573 574 575 576 577 578 579 580 581 582 0
c ret 583 584 585 586 587 588 589 590 591 592 0
c ret 593 594 595 596 597 598 599 600 601 602 0
c ret 603 604 605 606 607 608 609 0
2 139 300 -301 0
2 3 300 -301 0
-2 301 0
-2 -300 0
-2 -3 -139 0
3 -4 -62 -129 0
3 4 62 119 0
3 4 62 -129 0
3 -4 -62 119 0
-3 4 -62 0
-3 -4 62 0
-3 -119 129 0
4 -5 -19 0
4 -5 56 0
-4 5 0
-4 19 -56 0
5 6 12 0
-5 -6 0
-5 -12 0
6 -8 -9 0
6 -7 -9 0
-6 9 0
-6 7 8 0
7 1074 0
7 -1075 -1081 0
7 1075 -1082 0
-7 -1074 1075 1082 0
-7 -1074 -1075 1081 0
-7 8 0
8 -1083 1089 0
8 1083 1090 0
7 -8 -1083 -1089 0
7 -8 1083 -1090 0
9 -10 -11 0
-7 9 -11 0
-9 11 0
7 -9 10 0
-7 10 0
10 1083 -1090 0
10 -1083 -1089 0
7 -10 -1083 1089 0
7 -10 1083 1090 0
11 1074 0
11 -1075 1081 0
11 1075 1082 0
-11 -1074 1075 -1082 0
-11 -1074 -1075 -1081 0
12 -13 -14 0
12 -14 -17 0
-12 14 0
-12 13 17 0
13 1103 0
13 -1104 -1110 0
13 1104 -1111 0
-13 -1103 1104 1111 0
-13 -1103 -1104 1110 0
14 -15 -16 0
-13 14 -16 0
-14 16 0
13 -14 15 0
15 1112 1119 0
15 -1112 1118 0
-15 -1112 -1118 0
-15 1112 -1119 0
16 1103 0
16 -1104 1110 0
16 1104 1111 0
-16 -1103 1104 -1111 0
-16 -1103 -1104 -1110 0
17 18 0
-17 -18 0
13 18 -1112 1118 0
13 18 1112 1119 0
-13 -18 0
-18 1112 -1119 0
-18 -1112 -1118 0
19 -20 -55 -1153 0
19 20 -21 -55 0
-19 55 0
-19 -20 1153 0
-19 20 21 0
20 1069 -1071 0
-20 -1069 0
-20 1071 0
21 -22 -1152 0
21 22 -23 0
-21 -22 1152 0
-21 22 23 0
22 1041 -1043 0
-22 -1041 0
-22 1043 0
23 24 47 54 0
23 24 47 -50 0
-23 -24 0
-23 -47 0
-23 50 -54 0
24 -45 842 -1017 0
24 25 842 1017 0
-24 -842 0
-24 45 -1017 0
-24 -25 1017 0
25 -26 -1149 0
-25 1149 0
-25 26 0
26 -27 41 0
-26 27 0
-26 -41 0
27 -34 35 0
27 28 35 -907 0
-27 -35 0
-27 -28 34 0
-27 34 907 0
28 29 0
28 32 -906 0
28 32 912 0
-28 -29 -32 0
-28 -29 906 -912 0
29 -30 31 -900 -907 0
-29 30 0
-29 -31 0
-29 900 0
-29 907 0
30 901 902 903 0
-30 -901 0
-30 -903 0
-30 -902 0
31 904 -905 0
-31 -904 0
-31 905 0
32 33 906 912 -913 0
-32 -906 0
-32 -33 0
-32 913 0
-32 -912 0
33 920 921 0
-33 -920 0
-33 -921 0
30 34 -900 0
31 34 -900 -906 0
-34 900 0
-30 -34 906 0
-30 -31 -34 0
35 37 40 0
35 37 -39 0
35 36 37 0
-35 -37 0
-35 -36 39 -40 0
36 929 930 931 0
-36 -929 0
-36 -931 0
-36 -930 0
36 37 -928 0
37 38 -928 -934 0
-37 928 0
-36 -37 934 0
-36 -37 -38 0
38 932 -933 0
-38 -932 0
-38 933 0
39 940 941 0
39 940 948 949 0
-39 -940 0
-39 -941 -948 0
-39 -941 -949 0
38 40 -928 934 -935 0
-40 935 0
-38 -40 0
-40 928 0
-40 -934 0
41 -42 -874 0
41 -44 -874 0
41 -43 -874 0
-41 874 0
-41 42 43 44 0
42 -875 876 877 0
-42 875 0
-42 -877 0
-42 -876 0
43 880 883 884 0
-43 -880 0
-43 -884 0
-43 -883 0
44 -880 881 882 0
-44 880 0
-44 -882 0
-44 -881 0
45 -46 1150 0
25 45 46 0
-45 -46 -1150 0
-25 -45 46 0
46 983 -985 0
-46 -983 0
-46 985 0
47 -48 -49 -1027 0
47 -48 -49 -1028 0
-47 49 0
-47 48 0
-47 1027 1028 0
48 1030 1031 1032 1033 0
-48 -1033 0
-48 -1032 0
-48 -1030 0
-48 -1031 0
49 -1024 -1025 -1026 1029 0
-49 1026 0
-49 -1029 0
-49 1024 0
-49 1025 0
45 50 -51 0
-45 -50 0
-50 51 0
51 52 53 0
-51 -52 0
-51 -53 0
52 1004 -1006 0
-52 -1004 0
-52 1006 0
53 996 997 998 0
-53 -996 0
-53 -998 0
-53 -997 0
52 54 -842 0
54 -842 1151 0
-54 842 0
-52 -54 -1151 0
55 -1038 1045 0
-55 1038 0
-55 -1045 0
56 -57 -1038 0
21 23 56 0
21 56 -1038 0
23 56 -57 0
-23 -56 1038 0
-21 -56 57 0
57 59 1045 0
57 -58 59 0
57 59 1038 0
-57 -59 0
-57 58 -1038 -1045 0
58 -1046 1047 0
-58 1046 0
-58 -1047 0
59 60 -61 0
-59 -60 0
-59 61 0
60 1049 -1050 -1051 1052 0
-60 -1049 0
-60 -1052 0
-60 1051 0
-60 1050 0
61 -1038 -1045 -1046 1047 0
-61 1046 0
-61 -1047 0
-61 1038 0
-61 1045 0
62 -63 -74 0
62 -63 113 0
-62 63 0
-62 74 -113 0
63 64 -70 0
-63 -64 0
-63 70 0
64 -66 -67 0
64 -65 -67 0
-64 67 0
-64 65 66 0
65 537 0
65 -538 -544 0
65 538 -545 0
-65 -537 538 545 0
-65 -537 -538 544 0
-65 66 0
66 -546 552 0
66 546 553 0
65 -66 -546 -552 0
65 -66 546 -553 0
-65 67 -68 0
67 -68 -69 0
-67 68 0
65 -67 69 0
68 537 0
68 -538 544 0
68 538 545 0
-68 -537 538 -545 0
-68 -537 -538 -544 0
-65 69 0
69 546 -553 0
69 -546 -552 0
65 -69 -546 552 0
65 -69 546 553 0
70 -71 -72 -73 0
-70 71 0
-70 72 0
-70 73 0
71 -566 -740 -769 0
-71 566 0
-71 740 0
-71 769 0
72 -624 -653 0
-72 624 0
-72 653 0
73 -595 -682 -711 0
-73 595 0
-73 682 0
-73 711 0
74 -75 -112 -819 0
74 75 -76 -112 0
-74 112 0
-74 -75 819 0
-74 75 76 0
75 532 -534 0
-75 -532 0
-75 534 0
76 -77 -818 0
76 77 -78 0
-76 -77 818 0
-76 77 78 0
77 504 -506 0
-77 -504 0
-77 506 0
78 79 104 111 0
78 79 104 -107 0
-78 -79 0
-78 -104 0
-78 107 -111 0
79 -102 305 -480 0
79 80 305 480 0
-79 -305 0
-79 102 -480 0
-79 -80 480 0
80 -81 -815 0
-80 815 0
-80 81 0
81 82 -86 0
-81 -82 0
-81 86 0
82 -83 -337 0
82 -85 -337 0
82 -84 -337 0
-82 337 0
-82 83 84 85 0
83 -338 339 340 0
-83 338 0
-83 -340 0
-83 -339 0
84 343 346 347 0
-84 -343 0
-84 -347 0
-84 -346 0
85 -343 344 345 0
-85 343 0
-85 -345 0
-85 -344 0
86 87 -94 0
86 87 97 -370 0
-86 -87 0
-86 94 -97 0
-86 94 370 0
87 -88 91 0
87 91 391 0
-87 -91 0
-87 88 -391 0
88 -90 394 397 0
88 -89 -90 394 0
-88 -394 0
-88 90 0
-88 89 -397 0
89 395 -396 0
-89 -395 0
-89 396 0
90 392 393 0
-90 -392 0
-90 -393 0
89 -90 91 92 -93 0
90 -91 0
-91 -92 0
-89 -91 0
-91 93 0
92 403 404 0
92 403 411 412 0
-92 -403 0
-92 -404 -411 0
-92 -404 -412 0
93 -391 394 397 -398 0
-93 398 0
-93 -397 0
-93 391 0
-93 -394 0
94 95 -363 0
94 96 -363 -369 0
-94 363 0
-94 -95 369 0
-94 -95 -96 0
95 364 365 366 0
-95 -364 0
-95 -366 0
-95 -365 0
96 367 -368 0
-96 -367 0
-96 368 0
97 98 101 0
-97 -98 0
-97 -101 0
98 -99 -100 -383 0
98 -99 -100 -384 0
-98 100 0
-98 99 0
-98 383 384 0
-95 96 99 -363 -370 0
95 -99 0
-96 -99 0
-99 363 0
-99 370 0
100 369 375 -376 0
-100 376 0
-100 -375 0
-100 -369 0
-99 101 369 -375 0
99 -101 0
-101 375 0
-101 -369 0
102 -103 816 0
80 102 103 0
-102 -103 -816 0
-80 -102 103 0
103 446 -448 0
-103 -446 0
-103 448 0
104 -105 -106 -490 0
104 -105 -106 -491 0
-104 106 0
-104 105 0
-104 490 491 0
105 493 494 495 496 0
-105 -496 0
-105 -495 0
-105 -493 0
-105 -494 0
106 -487 -488 -489 492 0
-106 489 0
-106 -492 0
-106 487 0
-106 488 0
102 107 -108 0
-102 -107 0
-107 108 0
108 109 110 0
-108 -109 0
-108 -110 0
109 459 460 461 0
-109 -459 0
-109 -461 0
-109 -460 0
110 467 -469 0
-110 -467 0
-110 469 0
110 111 -305 0
111 -305 817 0
-111 305 0
-110 -111 -817 0
112 -501 508 0
-112 501 0
-112 -508 0
113 -114 -501 0
76 78 113 0
76 113 -501 0
78 113 -114 0
-78 -113 501 0
-76 -113 114 0
114 116 508 0
114 -115 116 0
114 116 501 0
-114 -116 0
-114 115 -501 -508 0
115 -509 510 0
-115 509 0
-115 -510 0
116 117 -118 0
-116 -117 0
-116 118 0
117 512 -513 -514 515 0
-117 -512 0
-117 -515 0
-117 514 0
-117 513 0
118 -501 -508 -509 510 0
-118 509 0
-118 -510 0
-118 501 0
-118 508 0
-5 119 -120 0
-5 119 128 0
5 -119 0
-119 120 -128 0
20 -55 120 -121 0
-20 -55 120 -1175 0
55 -120 0
20 -120 121 0
-20 -120 1175 0
-22 121 -1174 0
22 121 -122 0
-22 -121 1174 0
22 -121 122 0
47 122 123 127 0
47 122 123 -126 0
-47 -122 0
-122 -123 0
-122 126 -127 0
123 -125 842 -1017 0
123 124 842 1017 0
-123 -842 0
-123 125 -1017 0
-123 -124 1017 0
-26 124 -1171 0
-124 1171 0
26 -124 0
-46 125 1172 0
46 124 125 0
-46 -125 -1172 0
46 -124 -125 0
-51 125 126 0
51 -126 0
-125 -126 0
52 127 -842 0
127 -842 1173 0
-127 842 0
-52 -127 -1173 0
-57 122 128 0
121 128 -1038 0
-57 128 -1038 0
121 122 128 0
57 -121 -128 0
-122 -128 1038 0
-63 129 -130 0
-63 129 138 0
63 -129 0
-129 130 -138 0
75 -112 130 -131 0
-75 -112 130 -841 0
112 -130 0
75 -130 131 0
-75 -130 841 0
-77 131 -840 0
77 131 -132 0
-77 -131 840 0
77 -131 132 0
104 132 133 137 0
104 132 133 -136 0
-104 -132 0
-132 -133 0
-132 136 -137 0
133 -135 305 -480 0
133 134 305 480 0
-133 -305 0
-133 135 -480 0
-133 -134 480 0
-81 134 -837 0
-134 837 0
81 -134 0
-103 135 838 0
103 134 135 0
-103 -135 -838 0
103 -134 -135 0
-108 135 136 0
108 -136 0
-135 -136 0
110 137 -305 0
137 -305 839 0
-137 305 0
-110 -137 -839 0
-114 132 138 0
131 138 -501 0
-114 138 -501 0
131 132 138 0
114 -131 -138 0
-132 -138 501 0
139 140 149 -158 -279 0
139 -140 -149 -158 -279 0
-139 279 0
-139 -140 149 0
-139 158 0
-139 140 -149 0
-5 140 -141 0
-5 140 148 0
5 -140 0
-140 141 -148 0
20 -55 141 -142 0
-20 -55 141 -1148 0
55 -141 0
20 -141 142 0
-20 -141 1148 0
-22 142 -1147 0
22 142 -143 0
-22 -142 1147 0
22 -142 143 0
47 143 144 147 0
47 143 144 -146 0
-47 -143 0
-143 -144 0
-143 146 -147 0
144 -145 842 -1017 0
26 144 842 1017 0
-144 -842 0
-144 145 -1017 0
-26 -144 1017 0
-46 145 1145 0
26 46 145 0
-46 -145 -1145 0
-26 46 -145 0
-51 145 146 0
51 -146 0
-145 -146 0
52 147 -842 0
147 -842 1146 0
-147 842 0
-52 -147 -1146 0
-57 143 148 0
142 148 -1038 0
-57 148 -1038 0
142 143 148 0
57 -142 -148 0
-143 -148 1038 0
-63 149 -150 0
-63 149 157 0
63 -149 0
-149 150 -157 0
75 -112 150 -151 0
-75 -112 150 -814 0
112 -150 0
75 -150 151 0
-75 -150 814 0
-77 151 -813 0
77 151 -152 0
-77 -151 813 0
77 -151 152 0
104 152 153 156 0
104 152 153 -155 0
-104 -152 0
-152 -153 0
-152 155 -156 0
153 -154 305 -480 0
81 153 305 480 0
-153 -305 0
-153 154 -480 0
-81 -153 480 0
-103 154 811 0
81 103 154 0
-103 -154 -811 0
-81 103 -154 0
-108 154 155 0
108 -155 0
-154 -155 0
110 156 -305 0
156 -305 812 0
-156 305 0
-110 -156 -812 0
-114 152 157 0
151 157 -501 0
-114 157 -501 0
151 152 157 0
114 -151 -157 0
-152 -157 501 0
158 159 172 -186 -240 0
158 -159 -172 -186 -240 0
-158 240 0
-158 -159 172 0
-158 186 0
-158 159 -172 0
-5 159 -160 0
-5 159 -170 0
-5 159 -169 0
5 -159 0
-159 160 169 170 0
160 163 -164 0
-51 160 161 -164 0
-160 164 0
-160 -161 -163 0
51 -160 -163 0
-46 161 1155 0
46 161 162 0
-46 -161 -1155 0
46 -161 -162 0
-26 162 -1154 0
-162 1154 0
26 -162 0
52 163 -842 0
163 -842 1156 0
-163 842 0
-52 -163 -1156 0
164 165 -166 0
-164 -165 0
-164 166 0
-161 165 842 -1017 0
162 165 842 1017 0
-165 -842 0
161 -165 -1017 0
-162 -165 1017 0
47 166 167 0
-47 -166 0
-166 -167 0
-22 167 -1038 0
167 -168 -1038 0
-167 1038 0
22 -167 168 0
-20 59 168 1045 0
-58 59 168 -1045 0
-59 -168 0
58 -168 -1045 0
20 -168 1045 0
-20 -55 169 -1158 0
-169 1158 0
20 -169 0
55 -169 0
-22 170 -171 -1157 0
-170 1157 0
22 -170 0
-170 171 0
168 171 -1038 0
-171 1038 0
-168 -171 0
172 -173 -185 0
172 -182 -185 0
172 -183 -185 0
-172 185 0
-172 173 182 183 0
173 176 -177 0
-108 173 174 -177 0
-173 177 0
-173 -174 -176 0
108 -173 -176 0
-103 174 821 0
103 174 175 0
-103 -174 -821 0
103 -174 -175 0
-81 175 -820 0
-175 820 0
81 -175 0
110 176 -305 0
176 -305 822 0
-176 305 0
-110 -176 -822 0
177 178 -179 0
-177 -178 0
-177 179 0
-174 178 305 -480 0
175 178 305 480 0
-178 -305 0
174 -178 -480 0
-175 -178 480 0
104 179 180 0
-104 -179 0
-179 -180 0
-77 180 -501 0
180 -181 -501 0
-180 501 0
77 -180 181 0
-75 116 181 508 0
-115 116 181 -508 0
-116 -181 0
115 -181 -508 0
75 -181 508 0
-75 -112 182 -824 0
-182 824 0
75 -182 0
112 -182 0
-77 183 -184 -823 0
-183 823 0
77 -183 0
-183 184 0
181 184 -501 0
-184 501 0
-181 -184 0
64 -71 -72 -73 185 0
-64 -185 0
73 -185 0
72 -185 0
71 -185 0
186 187 198 -209 -223 0
186 -187 -198 -209 -223 0
-186 223 0
-186 -187 198 0
-186 209 0
-186 187 -198 0
187 188 -195 305 0
187 188 -194 -195 0
-187 195 0
-187 -188 0
-187 194 -305 0
188 189 193 0
188 191 193 0
188 189 -191 305 0
-188 -189 -191 0
-188 191 -193 0
-188 -193 -305 0
-86 189 -798 0
82 -86 189 190 0
86 -189 0
-189 -190 798 0
-82 -189 798 0
190 316 835 0
-190 -316 0
-190 -835 0
191 -192 480 481 484 0
-191 192 0
-191 -484 0
-191 -480 0
-191 -481 0
192 482 483 0
-192 -482 0
-192 -483 0
193 424 -836 0
-189 193 -424 0
189 -193 -424 0
-193 424 836 0
109 -193 194 0
-109 -194 0
193 -194 0
-70 195 -196 0
70 -195 0
-195 196 0
67 196 -197 0
66 196 -197 -537 0
-196 197 0
-66 -67 -196 0
-67 -196 537 0
104 118 197 0
104 117 197 0
-104 -197 0
-117 -118 -197 0
198 199 -206 842 0
198 199 -205 -206 0
-198 206 0
-198 -199 0
-198 205 -842 0
199 200 204 0
199 202 204 0
199 200 -202 842 0
-199 -200 -202 0
-199 202 -204 0
-199 -204 -842 0
-27 200 -1132 0
-27 41 200 201 0
27 -200 0
-200 -201 1132 0
-41 -200 1132 0
201 853 1169 0
-201 -853 0
-201 -1169 0
202 -203 1017 1018 0
-202 203 0
-202 -1018 0
-202 -1017 0
203 1019 1020 1021 0
-203 -1019 0
-203 -1021 0
-203 -1020 0
204 961 -1170 0
-200 204 -961 0
200 -204 -961 0
-204 961 1170 0
53 -204 205 0
-53 -205 0
204 -205 0
12 206 -207 -208 0
9 12 206 -207 0
-206 207 0
-12 -206 0
-9 -206 208 0
47 61 207 0
47 60 207 0
-47 -207 0
-60 -61 -207 0
8 208 -1074 0
-208 1074 0
-8 -208 0
209 210 212 217 -218 0
209 -210 -212 217 -218 0
-209 -217 0
-209 210 -212 0
-209 218 0
-209 -210 212 0
-206 210 -211 842 0
53 -206 210 -211 0
-210 211 0
206 -210 0
-53 -210 -842 0
-27 211 -1132 1134 0
-211 1132 0
-211 -1134 0
27 -211 0
-86 -196 212 213 -214 0
-212 214 0
86 -212 0
196 -212 0
-212 -213 0
-109 213 -305 0
-213 305 0
109 -213 0
214 -215 -216 -798 800 0
-214 216 0
-214 798 0
-214 215 0
-214 -800 0
215 -566 -595 -740 -769 0
-215 769 0
-215 566 0
-215 740 0
-215 595 0
-72 216 -682 -711 0
-216 682 0
-216 711 0
72 -216 0
-14 -17 217 0
14 -217 0
17 -217 0
10 218 -219 0
8 218 -219 0
11 218 -219 0
-218 219 0
-8 -10 -11 -218 0
28 35 219 -220 0
-34 35 219 -220 0
-219 220 0
-35 -219 0
-28 34 -219 0
41 -207 220 221 -222 0
207 -220 0
-220 -221 0
-41 -220 0
-220 222 0
-53 221 -842 0
-221 842 0
53 -221 0
222 -845 -846 0
222 -844 847 0
222 -844 -846 0
222 -845 847 0
-222 846 -847 0
-222 844 845 0
223 -224 -232 0
223 224 232 0
-223 224 -232 0
-223 -224 232 0
224 -228 842 0
53 224 225 -228 0
-224 228 0
-224 -225 -842 0
-53 -224 -842 0
225 226 -961 0
-211 225 961 1140 0
-225 961 -1140 0
-225 -226 -961 0
211 -225 961 0
-27 226 -227 0
27 -226 0
-226 227 0
227 -1132 -1134 0
41 227 1132 0
227 -1132 -1138 0
-41 -227 1132 0
-227 -1132 1134 1138 0
-206 228 -229 230 0
-206 225 228 230 0
206 -228 0
-228 -230 0
-225 -228 229 0
229 1017 1018 0
-229 -1017 0
-229 -1018 0
226 230 -231 0
203 -225 230 0
203 230 -231 0
-225 226 230 0
225 -230 231 0
-203 -226 -230 0
-202 231 842 0
-231 -842 0
202 -231 0
-195 232 233 0
195 -232 0
-232 -233 0
191 233 -234 0
233 238 239 0
233 -234 238 0
-233 234 -239 0
-191 -233 -238 0
-233 234 -238 0
234 235 -424 0
-86 234 -237 424 0
-234 -235 -424 0
86 -234 424 0
-234 237 424 0
-86 235 -236 0
86 -235 0
-235 236 0
236 -798 -800 0
82 236 798 0
236 -798 -804 0
-82 -236 798 0
-236 -798 800 804 0
237 -798 800 806 0
-237 798 0
-237 -806 0
-237 -800 0
191 238 305 0
-235 238 305 0
-238 -305 0
-191 235 -238 0
109 239 -305 0
-239 305 0
-109 -239 0
240 241 250 -259 -269 0
240 -241 -250 -259 -269 0
240 241 250 259 269 0
240 -241 -250 259 269 0
-240 241 -250 0
-240 -241 250 0
-240 259 -269 0
-240 -259 269 0
-185 241 -242 0
-185 241 -249 0
-185 241 -248 0
185 -241 0
-241 242 248 249 0
242 245 -246 0
-108 242 243 -246 0
-242 246 0
-242 -243 -245 0
108 -242 -245 0
-103 243 830 0
103 243 244 0
-103 -243 -830 0
103 -243 -244 0
-81 244 -829 0
-244 829 0
81 -244 0
110 245 -305 0
245 -305 831 0
-245 305 0
-110 -245 -831 0
-179 246 247 0
179 -246 0
-246 -247 0
-243 247 305 -480 0
244 247 305 480 0
-247 -305 0
243 -247 -480 0
-244 -247 480 0
-75 -112 248 -833 0
-248 833 0
75 -248 0
112 -248 0
-77 -184 249 -832 0
-249 832 0
77 -249 0
184 -249 0
6 250 -251 -1103 0
6 250 257 -1103 0
-250 1103 0
-6 -250 0
-250 251 -257 0
251 254 -255 0
-51 251 252 -255 0
-251 255 0
-251 -252 -254 0
51 -251 -254 0
-46 252 1164 0
46 252 253 0
-46 -252 -1164 0
46 -252 -253 0
-26 253 -1163 0
-253 1163 0
26 -253 0
52 254 -842 0
254 -842 1165 0
-254 842 0
-52 -254 -1165 0
-166 255 256 0
166 -255 0
-255 -256 0
-252 256 842 -1017 0
253 256 842 1017 0
-256 -842 0
252 -256 -1017 0
-253 -256 1017 0
20 257 258 0
55 257 258 0
257 258 1167 0
-257 -258 0
-20 -55 -257 -1167 0
-22 -171 258 -1166 0
-258 1166 0
22 -258 0
171 -258 0
-5 167 259 260 0
-5 259 260 268 0
5 -259 0
-259 -260 0
-167 -259 -268 0
260 262 1038 0
22 260 261 262 0
-260 -262 0
-260 -261 -1038 0
-22 -260 -1038 0
-20 261 1045 -1162 0
20 -261 0
-261 1162 0
-261 -1045 0
47 262 263 267 0
47 262 263 -266 0
-47 -262 0
-262 -263 0
-262 266 -267 0
263 -265 842 -1017 0
263 264 842 1017 0
-263 -842 0
-263 265 -1017 0
-263 -264 1017 0
-26 264 -846 0
-264 846 0
26 -264 0
-46 265 1159 0
46 264 265 0
-46 -265 -1159 0
46 -264 -265 0
-51 265 266 0
51 -266 0
-265 -266 0
52 267 -842 0
267 -842 1160 0
-267 842 0
-52 -267 -1160 0
-168 261 268 0
261 268 1161 0
-261 -268 0
168 -268 -1161 0
-63 180 269 270 0
-63 269 270 278 0
63 -269 0
-269 -270 0
-180 -269 -278 0
270 272 501 0
77 270 271 272 0
-270 -272 0
-270 -271 -501 0
-77 -270 -501 0
-75 271 508 -828 0
75 -271 0
-271 828 0
-271 -508 0
104 272 273 277 0
104 272 273 -276 0
-104 -272 0
-272 -273 0
-272 276 -277 0
273 -275 305 -480 0
273 274 305 480 0
-273 -305 0
-273 275 -480 0
-273 -274 480 0
-81 274 -309 0
-274 309 0
81 -274 0
-103 275 825 0
103 274 275 0
-103 -275 -825 0
103 -274 -275 0
-108 275 276 0
108 -276 0
-275 -276 0
110 277 -305 0
277 -305 826 0
-277 305 0
-110 -277 -826 0
-181 271 278 0
271 278 827 0
-271 -278 0
181 -278 -827 0
129 279 280 290 0
-119 279 -280 -290 0
-119 279 280 290 0
129 279 -280 -290 0
-279 280 -290 0
-279 -280 290 0
119 -129 -279 0
-5 280 -281 0
-5 280 289 0
5 -280 0
-280 281 -289 0
20 -55 281 -282 0
-20 -55 281 -1144 0
55 -281 0
20 -281 282 0
-20 -281 1144 0
-22 282 -1143 0
22 282 -283 0
-22 -282 1143 0
22 -282 283 0
47 283 284 288 0
47 283 284 -287 0
-47 -283 0
-283 -284 0
-283 287 -288 0
284 285 -842 1142 0
52 284 285 -842 0
-284 842 0
-284 -285 0
-52 -284 -1142 0
-51 285 286 0
51 -285 0
-285 -286 0
26 46 286 0
-46 286 1141 0
46 286 847 0
-46 -286 -1141 0
-26 46 -286 -847 0
-26 46 287 -847 0
-26 287 -847 1017 0
26 -287 0
-287 847 0
-46 -287 -1017 0
288 842 1141 0
288 842 1017 0
46 288 842 0
-288 -842 0
-46 -288 -1017 -1141 0
-57 283 289 0
282 289 -1038 0
-57 289 -1038 0
282 283 289 0
57 -282 -289 0
-283 -289 1038 0
-63 290 -291 0
-63 290 299 0
63 -290 0
-290 291 -299 0
75 -112 291 -292 0
-75 -112 291 -810 0
112 -291 0
75 -291 292 0
-75 -291 810 0
-77 292 -809 0
77 292 -293 0
-77 -292 809 0
77 -292 293 0
104 293 294 298 0
104 293 294 -297 0
-104 -293 0
-293 -294 0
-293 297 -298 0
294 295 -305 808 0
110 294 295 -305 0
-294 305 0
-294 -295 0
-110 -294 -808 0
-108 295 296 0
108 -295 0
-295 -296 0
81 103 296 0
-103 296 807 0
103 296 310 0
-103 -296 -807 0
-81 103 -296 -310 0
-81 103 297 -310 0
-81 297 -310 480 0
81 -297 0
-297 310 0
-103 -297 -480 0
298 305 807 0
298 305 480 0
103 298 305 0
-298 -305 0
-103 -298 -480 -807 0
-114 293 299 0
292 299 -501 0
-114 299 -501 0
292 293 299 0
114 -292 -299 0
-293 -299 501 0
-66 -68 -69 300 0
66 -300 0
68 -300 0
69 -300 0
-94 301 -302 0
-98 301 -302 0
-101 301 -302 0
-301 302 0
94 98 101 -301 0
82 87 -197 302 -303 0
-82 -302 0
-302 303 0
197 -302 0
-87 -302 0
213 -215 -216 303 -304 0
-213 -303 0
-303 304 0
216 -303 0
215 -303 0
304 -308 -309 0
304 -307 310 0
304 -307 -309 0
304 -308 310 0
-304 309 -310 0
-304 307 308 0
1 2 0
-1 -2 0
1176 0

